Minimize
+1.000000 x0 +1.000000 x1 +1.000000 x2 +1.000000 x3 +1.000000 x4 +1.000000 x5 +1.000000 x6 +1.000000 x7 +1.000000 x8 +1.000000 x9 +1.000000 x10 +1.000000 x11 +1.000000 x12 +1.000000 x13 +1.000000 x14 +1.000000 x15 +1.000000 x16 +1.000000 x17 +1.000000 x18 +1.000000 x19
Subject To
 c0: +1.000000 x16 +1.000000 x17 +1.000000 x18 +1.000000 x19 = 4.000000
 c1: +1.000000 x13 +1.000000 x14 +1.000000 x15 +1.000000 x19 = 4.000000
 c2: +1.000000 x11 +1.000000 x12 +1.000000 x15 +1.000000 x18 = 4.000000
 c3: +1.000000 x10 +1.000000 x12 +1.000000 x14 +1.000000 x17 = 4.000000
 c4: +1.000000 x10 +1.000000 x11 +1.000000 x13 +1.000000 x16 = 4.000000
 c5: +1.000000 x7 +1.000000 x8 +1.000000 x9 +1.000000 x19 = 4.000000
 c6: +1.000000 x5 +1.000000 x6 +1.000000 x9 +1.000000 x18 = 4.000000
 c7: +1.000000 x4 +1.000000 x6 +1.000000 x8 +1.000000 x17 = 4.000000
 c8: +1.000000 x4 +1.000000 x5 +1.000000 x7 +1.000000 x16 = 4.000000
 c9: +1.000000 x2 +1.000000 x3 +1.000000 x9 +1.000000 x15 = 4.000000
 c10: +1.000000 x1 +1.000000 x3 +1.000000 x8 +1.000000 x14 = 4.000000
 c11: +1.000000 x1 +1.000000 x2 +1.000000 x7 +1.000000 x13 = 4.000000
 c12: +1.000000 x0 +1.000000 x3 +1.000000 x6 +1.000000 x12 = 4.000000
 c13: +1.000000 x0 +1.000000 x2 +1.000000 x5 +1.000000 x11 = 4.000000
 c14: +1.000000 x0 +1.000000 x1 +1.000000 x4 +1.000000 x10 = 4.000000
Binaries
x0 x1 x2 x3 x4 x5 x6 x7 x8 x9 x10 x11 x12 x13 x14 x15 x16 x17 x18 x19
End
